NAME : cgl_43.7343.tour
COMMENT : Length = 7343
COMMENT : Found by LKH-3 [Keld Helsgaun] Fri Nov  8 19:20:29 2024
TYPE : TOUR
DIMENSION : 43
TOUR_SECTION
9
5
10
13
11
21
34
27
25
33
36
24
28
20
30
32
31
15
26
19
16
29
22
23
18
17
35
37
38
39
40
41
42
43
1
2
14
3
12
7
6
4
8
-1
EOF
